problem_generation/data/GISP/train/er_n=69_m=1381_p=0.60_SET2_setparam=100.00_alpha=0.50_841.lp
maximize
OBJ:100x0 + 100x1 + 100x2 + 100x3 + 100x4 + 100x5 + 100x6 + 100x7 + 100x8 + 100x9 + 100x10 + 100x11 + 100x12 + 100x13 + 100x14 + 100x15 + 100x16 + 100x17 + 100x18 + 100x19 + 100x20 + 100x21 + 100x22 + 100x23 + 100x24 + 100x25 + 100x26 + 100x27 + 100x28 + 100x29 + 100x30 + 100x31 + 100x32 + 100x33 + 100x34 + 100x35 + 100x36 + 100x37 + 100x38 + 100x39 + 100x40 + 100x41 + 100x42 + 100x43 + 100x44 + 100x45 + 100x46 + 100x47 + 100x48 + 100x49 + 100x50 + 100x51 + 100x52 + 100x53 + 100x54 + 100x55 + 100x56 + 100x57 + 100x58 + 100x59 + 100x60 + 100x61 + 100x62 + 100x63 + 100x64 + 100x65 + 100x66 + 100x67 + 100x68 - y55_57 - y67_68 - y36_62 - y47_62 - y17_58 - y28_58 - y7_35 - y28_67 - y29_32 - y18_44 - y8_18 - y6_57 - y40_68 - y41_51 - y10_45 - y33_47 - y33_56 - y25_52 - y14_15 - y10_63 - y51_64 - y43_60 - y13_65 - y24_65 - y35_65 - y7_12 - y7_21 - y17_53 - y18_30 - y59_68 - y17_62 - y9_67 - y21_41 - y21_50 - y6_61 - y21_59 - y10_22 - y21_68 - y10_31 - y33_42 - y44_51 - y2_45 - y2_54 - y43_55 - y14_28 - y32_64 - y13_60 - y36_52 - y28_48 - y47_61 - y5_55 - y17_57 - y5_64 - y29_31 - y9_62 - y48_53 - y6_56 - y39_62 - y2_31 - y31_67 - y22_27 - y32_59 - y14_32 - y43_68 - y1_62 - y17_25 - y36_38 - y17_34 - y28_34 - y36_47 - y9_30 - y5_41 - y28_43 - y17_52 - y28_52 - y5_59 - y17_61 - y28_61 - y58_62 - y21_22 - y5_68 - y21_40 - y10_12 - y31_53 - y20_62 - y25_28 - y32_36 - y12_67 - y24_32 - y4_63 - y32_45 - y13_41 - y43_54 - y1_48 - y1_57 - y24_59 - y17_20 - y16_64 - y17_29 - y36_42 - y9_34 - y5_45 - y17_47 - y5_54 - y58_66 - y27_60 - y61_62 - y19_65 - y30_65 - y42_67 - y39_43 - y2_3 - y12_53 - y4_49 - y13_27 - y24_27 - y32_40 - y1_34 - y35_36 - y1_52 - y13_54 - y35_54 - y16_50 - y17_24 - y9_20 - y16_68 - y5_31 - y28_33 - y5_40 - y9_47 - y5_58 - y42_44 - y27_55 - y6_32 - y8_51 - y42_53 - y21_30 - y27_64 - y19_60 - y42_62 - y0_56 - y10_11 - y11_65 - y2_7 - y39_56 - y2_16 - y23_48 - y20_61 - y54_63 - y16_18 - y1_29 - y24_31 - y32_44 - y53_67 - y1_47 - y16_45 - y1_56 - y1_65 - y65_68 - y5_26 - y17_28 - y46_64 - y9_24 - y49_60 - y9_33 - y26_67 - y7_63 - y6_9 - y8_46 - y19_46 - y19_64 - y20_29 - y30_64 - y11_60 - y12_25 - y42_66 - y12_34 - y23_34 - y12_43 - y20_56 - y31_56 - y12_52 - y1_15 - y23_52 - y4_48 - y23_61 - y4_57 - y16_31 - y13_44 - y24_44 - y35_44 - y5_12 - y38_46 - y9_19 - y26_53 - y5_30 - y15_62 - y18_58 - y27_36 - y7_67 - y18_67 - y19_32 - y27_45 - y30_41 - y50_56 - y0_37 - y30_50 - y42_52 - y27_63 - y8_59 - y19_59 - y0_64 - y11_64 - y12_29 - y23_29 - y12_38 - y20_51 - y31_51 - y23_47 - y4_43 - y24_30 - y53_66 - y64_66 - y45_62 - y37_58 - y1_46 - y5_7 - y38_41 - y46_54 - y38_50 - y7_44 - y38_59 - y18_53 - y27_31 - y8_27 - y27_40 - y27_49 - y20_28 - y0_59 - y20_37 - y4_20 - y11_68 - y23_33 - y12_42 - y4_38 - y34_39 - y13_16 - y4_47 - y24_25 - y37_44 - y3_51 - y16_30 - y22_64 - y56_66 - y3_60 - y26_43 - y38_45 - y7_39 - y26_52 - y49_54 - y26_61 - y8_22 - y27_35 - y11_18 - y18_66 - y30_31 - y19_40 - y0_36 - y30_49 - y41_46 - y41_55 - y20_32 - y31_32 - y12_28 - y23_28 - y12_37 - y23_37 - y14_46 - y37_48 - y34_61 - y45_61 - y56_61 - y14_55 - y37_57 - y22_68 - y14_64 - y15_29 - y5_6 - y26_38 - y15_47 - y0_4 - y7_52 - y27_30 - y11_13 - y27_39 - y19_44 - y30_44 - y11_40 - y11_49 - y12_14 - y60_63 - y4_10 - y33_46 - y41_59 - y10_53 - y33_55 - y44_55 - y2_58 - y22_36 - y2_67 - y3_32 - y14_41 - y34_56 - y14_50 - y37_52 - y22_63 - y56_65 - y14_68 - y26_33 - y7_29 - y18_29 - y15_51 - y48_57 - y11_17 - y11_26 - y11_35 - y41_45 - y4_5 - y41_54 - y25_37 - y52_63 - y2_44 - y10_57 - y33_59 - y33_68 - y22_31 - y14_36 - y3_54 - y14_54 - y15_28 - y7_24 - y18_24 - y36_60 - y17_65 - y7_42 - y18_42 - y11_12 - y11_21 - y6_64 - y40_66 - y10_34 - y41_58 - y33_63 - y44_63 - y2_66 - y14_31 - y7_10 - y15_23 - y7_28 - y47_64 - y59_66 - y17_60 - y7_37 - y9_56 - y8_11 - y6_41 - y40_43 - y0_16 - y11_16 - y40_52 - y29_61 - y10_20 - y21_66 - y62_67 - y25_27 - y25_36 - y2_43 - y25_54 - y14_17 - y51_66 - y2_61 - y35_67 - y3_44 - y36_50 - y55_63 - y17_46 - y47_59 - y9_42 - y36_68 - y9_51 - y6_27 - y29_47 - y2_20 - y54_58 - y10_33 - y33_35 - y25_31 - y54_67 - y10_42 - y51_61 - y2_56 - y3_21 - y43_57 - y43_66 - y66_68 - y28_32 - y7_9 - y55_58 - y28_41 - y9_37 - y55_67 - y28_50 - y28_59 - y6_22 - y58_60 - y17_68 - y29_33 - y6_40 - y21_38 - y6_49 - y21_47 - y2_6 - y10_19 - y20_60 - y54_62 - y2_33 - y23_65 - y3_16 - y32_52 - y43_61 - y16_44 - y1_55 - y1_64 - y24_66 - y5_34 - y17_36 - y47_49 - y9_32 - y28_45 - y9_41 - y9_50 - y58_64 - y50_60 - y21_42 - y20_55 - y39_68 - y20_64 - y13_25 - y13_34 - y4_65 - y32_47 - y51_60 - y1_41 - y13_43 - y35_43 - y24_52 - y24_61 - y35_61 - y9_18 - y17_40 - y28_40 - y58_59 - y9_54 - y58_68 - y42_51 - y19_58 - y42_60 - y11_63 - y20_50 - y13_20 - y1_27 - y24_29 - y32_42 - y1_36 - y1_45 - y35_56 - y46_53 - y17_26 - y38_58 - y5_33 - y17_35 - y28_35 - y38_67 - y6_7 - y5_51 - y6_16 - y42_55 - y8_62 - y19_62 - y2_9 - y20_54 - y4_37 - y31_54 - y12_50 - y23_59 - y1_22 - y16_20 - y24_33 - y24_42 - y1_49 - y17_21 - y46_57 - y57_66 - y9_26 - y26_60 - y49_62 - y27_34 - y50_54 - y19_48 - y30_48 - y61_63 - y11_44 - y8_57 - y30_57 - y11_53 - y8_66 - y0_62 - y2_4 - y20_40 - y39_53 - y12_36 - y23_36 - y31_49 - y4_32 - y1_8 - y13_19 - y53_55 - y13_28 - y16_24 - y34_60 - y24_37 - y56_60 - y22_67 - y46_52 - y9_12 - y15_46 - y38_48 - y46_61 - y9_21 - y15_55 - y38_57 - y49_57 - y26_64 - y18_60 - y8_25 - y27_38 - y27_47 - y0_39 - y12_13 - y19_61 - y60_62 - y12_22 - y20_35 - y4_18 - y0_66 - y11_66 - y12_31 - y31_35 - y12_40 - y1_3 - y4_36 - y23_49 - y13_14 - y25_68 - y34_46 - y13_23 - y16_19 - y64_68 - y56_64 - y3_58 - y37_60 - y5_9 - y38_52 - y49_52 - y26_59 - y38_61 - y18_55 - y8_20 - y11_25 - y8_47 - y19_47 - y42_49 - y8_56 - y11_52 - y12_17 - y52_53 - y20_30 - y23_26 - y31_39 - y44_58 - y4_31 - y44_67 - y23_44 - y1_7 - y13_18 - y16_23 - y56_59 - y14_53 - y45_68 - y15_36 - y26_36 - y5_13 - y7_32 - y18_32 - y7_41 - y26_54 - y19_24 - y11_29 - y29_65 - y19_42 - y11_38 - y0_47 - y60_61 - y4_8 - y52_66 - y25_49 - y33_62 - y44_62 - y1_2 - y34_36 - y2_65 - y34_45 - y34_54 - y45_54 - y37_50 - y22_61 - y34_63 - y56_63 - y15_22 - y15_31 - y7_27 - y18_27 - y38_42 - y26_49 - y7_45 - y8_10 - y8_19 - y11_15 - y18_63 - y48_64 - y0_24 - y29_60 - y30_37 - y40_60 - y11_33 - y11_42 - y41_43 - y60_65 - y33_48 - y33_57 - y10_64 - y3_34 - y14_34 - y22_47 - y45_49 - y14_43 - y45_58 - y3_52 - y15_17 - y3_61 - y18_40 - y9_68 - y48_50 - y8_23 - y48_59 - y11_19 - y11_28 - y40_64 - y21_60 - y52_56 - y44_61 - y34_35 - y25_66 - y66_67 - y3_38 - y14_38 - y37_40 - y37_49
 Subject to
C1: x0+x1 <=1 
C2: x0+x3 <=1 
C3: x0+x4-y0_4 <=1 
C4: x0+x6 <=1 
C5: x0+x11 <=1 
C6: x0+x12 <=1 
C7: x0+x16-y0_16 <=1 
C8: x0+x20 <=1 
C9: x0+x23 <=1 
C10: x0+x24-y0_24 <=1 
C11: x0+x25 <=1 
C12: x0+x26 <=1 
C13: x0+x27 <=1 
C14: x0+x29 <=1 
C15: x0+x31 <=1 
C16: x0+x33 <=1 
C17: x0+x34 <=1 
C18: x0+x35 <=1 
C19: x0+x36-y0_36 <=1 
C20: x0+x37-y0_37 <=1 
C21: x0+x39-y0_39 <=1 
C22: x0+x41 <=1 
C23: x0+x44 <=1 
C24: x0+x47-y0_47 <=1 
C25: x0+x48 <=1 
C26: x0+x51 <=1 
C27: x0+x54 <=1 
C28: x0+x56-y0_56 <=1 
C29: x0+x59-y0_59 <=1 
C30: x0+x60 <=1 
C31: x0+x61 <=1 
C32: x0+x62-y0_62 <=1 
C33: x0+x64-y0_64 <=1 
C34: x0+x65 <=1 
C35: x0+x66-y0_66 <=1 
C36: x0+x67 <=1 
C37: x1+x2-y1_2 <=1 
C38: x1+x3-y1_3 <=1 
C39: x1+x4 <=1 
C40: x1+x5 <=1 
C41: x1+x7-y1_7 <=1 
C42: x1+x8-y1_8 <=1 
C43: x1+x10 <=1 
C44: x1+x12 <=1 
C45: x1+x13 <=1 
C46: x1+x14 <=1 
C47: x1+x15-y1_15 <=1 
C48: x1+x16 <=1 
C49: x1+x18 <=1 
C50: x1+x20 <=1 
C51: x1+x21 <=1 
C52: x1+x22-y1_22 <=1 
C53: x1+x24 <=1 
C54: x1+x27-y1_27 <=1 
C55: x1+x29-y1_29 <=1 
C56: x1+x30 <=1 
C57: x1+x31 <=1 
C58: x1+x33 <=1 
C59: x1+x34-y1_34 <=1 
C60: x1+x36-y1_36 <=1 
C61: x1+x37 <=1 
C62: x1+x38 <=1 
C63: x1+x39 <=1 
C64: x1+x41-y1_41 <=1 
C65: x1+x42 <=1 
C66: x1+x44 <=1 
C67: x1+x45-y1_45 <=1 
C68: x1+x46-y1_46 <=1 
C69: x1+x47-y1_47 <=1 
C70: x1+x48-y1_48 <=1 
C71: x1+x49-y1_49 <=1 
C72: x1+x51 <=1 
C73: x1+x52-y1_52 <=1 
C74: x1+x53 <=1 
C75: x1+x55-y1_55 <=1 
C76: x1+x56-y1_56 <=1 
C77: x1+x57-y1_57 <=1 
C78: x1+x60 <=1 
C79: x1+x61 <=1 
C80: x1+x62-y1_62 <=1 
C81: x1+x64-y1_64 <=1 
C82: x1+x65-y1_65 <=1 
C83: x2+x3-y2_3 <=1 
C84: x2+x4-y2_4 <=1 
C85: x2+x5 <=1 
C86: x2+x6-y2_6 <=1 
C87: x2+x7-y2_7 <=1 
C88: x2+x8 <=1 
C89: x2+x9-y2_9 <=1 
C90: x2+x10 <=1 
C91: x2+x15 <=1 
C92: x2+x16-y2_16 <=1 
C93: x2+x17 <=1 
C94: x2+x20-y2_20 <=1 
C95: x2+x21 <=1 
C96: x2+x22 <=1 
C97: x2+x25 <=1 
C98: x2+x28 <=1 
C99: x2+x29 <=1 
C100: x2+x30 <=1 
C101: x2+x31-y2_31 <=1 
C102: x2+x33-y2_33 <=1 
C103: x2+x34 <=1 
C104: x2+x38 <=1 
C105: x2+x39 <=1 
C106: x2+x42 <=1 
C107: x2+x43-y2_43 <=1 
C108: x2+x44-y2_44 <=1 
C109: x2+x45-y2_45 <=1 
C110: x2+x46 <=1 
C111: x2+x47 <=1 
C112: x2+x48 <=1 
C113: x2+x51 <=1 
C114: x2+x54-y2_54 <=1 
C115: x2+x56-y2_56 <=1 
C116: x2+x58-y2_58 <=1 
C117: x2+x61-y2_61 <=1 
C118: x2+x62 <=1 
C119: x2+x64 <=1 
C120: x2+x65-y2_65 <=1 
C121: x2+x66-y2_66 <=1 
C122: x2+x67-y2_67 <=1 
C123: x3+x4 <=1 
C124: x3+x8 <=1 
C125: x3+x9 <=1 
C126: x3+x12 <=1 
C127: x3+x14 <=1 
C128: x3+x16-y3_16 <=1 
C129: x3+x19 <=1 
C130: x3+x21-y3_21 <=1 
C131: x3+x24 <=1 
C132: x3+x29 <=1 
C133: x3+x30 <=1 
C134: x3+x31 <=1 
C135: x3+x32-y3_32 <=1 
C136: x3+x34-y3_34 <=1 
C137: x3+x35 <=1 
C138: x3+x38-y3_38 <=1 
C139: x3+x39 <=1 
C140: x3+x40 <=1 
C141: x3+x42 <=1 
C142: x3+x44-y3_44 <=1 
C143: x3+x45 <=1 
C144: x3+x46 <=1 
C145: x3+x47 <=1 
C146: x3+x48 <=1 
C147: x3+x49 <=1 
C148: x3+x51-y3_51 <=1 
C149: x3+x52-y3_52 <=1 
C150: x3+x53 <=1 
C151: x3+x54-y3_54 <=1 
C152: x3+x56 <=1 
C153: x3+x57 <=1 
C154: x3+x58-y3_58 <=1 
C155: x3+x59 <=1 
C156: x3+x60-y3_60 <=1 
C157: x3+x61-y3_61 <=1 
C158: x3+x62 <=1 
C159: x3+x65 <=1 
C160: x4+x5-y4_5 <=1 
C161: x4+x8-y4_8 <=1 
C162: x4+x9 <=1 
C163: x4+x10-y4_10 <=1 
C164: x4+x11 <=1 
C165: x4+x12 <=1 
C166: x4+x14 <=1 
C167: x4+x17 <=1 
C168: x4+x18-y4_18 <=1 
C169: x4+x19 <=1 
C170: x4+x20-y4_20 <=1 
C171: x4+x21 <=1 
C172: x4+x26 <=1 
C173: x4+x29 <=1 
C174: x4+x31-y4_31 <=1 
C175: x4+x32-y4_32 <=1 
C176: x4+x33 <=1 
C177: x4+x36-y4_36 <=1 
C178: x4+x37-y4_37 <=1 
C179: x4+x38-y4_38 <=1 
C180: x4+x41 <=1 
C181: x4+x43-y4_43 <=1 
C182: x4+x45 <=1 
C183: x4+x46 <=1 
C184: x4+x47-y4_47 <=1 
C185: x4+x48-y4_48 <=1 
C186: x4+x49-y4_49 <=1 
C187: x4+x51 <=1 
C188: x4+x55 <=1 
C189: x4+x57-y4_57 <=1 
C190: x4+x63-y4_63 <=1 
C191: x4+x65-y4_65 <=1 
C192: x4+x68 <=1 
C193: x5+x6-y5_6 <=1 
C194: x5+x7-y5_7 <=1 
C195: x5+x9-y5_9 <=1 
C196: x5+x10 <=1 
C197: x5+x11 <=1 
C198: x5+x12-y5_12 <=1 
C199: x5+x13-y5_13 <=1 
C200: x5+x15 <=1 
C201: x5+x18 <=1 
C202: x5+x20 <=1 
C203: x5+x23 <=1 
C204: x5+x26-y5_26 <=1 
C205: x5+x30-y5_30 <=1 
C206: x5+x31-y5_31 <=1 
C207: x5+x33-y5_33 <=1 
C208: x5+x34-y5_34 <=1 
C209: x5+x35 <=1 
C210: x5+x36 <=1 
C211: x5+x38 <=1 
C212: x5+x40-y5_40 <=1 
C213: x5+x41-y5_41 <=1 
C214: x5+x43 <=1 
C215: x5+x45-y5_45 <=1 
C216: x5+x47 <=1 
C217: x5+x50 <=1 
C218: x5+x51-y5_51 <=1 
C219: x5+x52 <=1 
C220: x5+x54-y5_54 <=1 
C221: x5+x55-y5_55 <=1 
C222: x5+x58-y5_58 <=1 
C223: x5+x59-y5_59 <=1 
C224: x5+x64-y5_64 <=1 
C225: x5+x65 <=1 
C226: x5+x68-y5_68 <=1 
C227: x6+x7-y6_7 <=1 
C228: x6+x9-y6_9 <=1 
C229: x6+x10 <=1 
C230: x6+x11 <=1 
C231: x6+x15 <=1 
C232: x6+x16-y6_16 <=1 
C233: x6+x18 <=1 
C234: x6+x20 <=1 
C235: x6+x22-y6_22 <=1 
C236: x6+x26 <=1 
C237: x6+x27-y6_27 <=1 
C238: x6+x28 <=1 
C239: x6+x31 <=1 
C240: x6+x32-y6_32 <=1 
C241: x6+x33 <=1 
C242: x6+x34 <=1 
C243: x6+x35 <=1 
C244: x6+x38 <=1 
C245: x6+x40-y6_40 <=1 
C246: x6+x41-y6_41 <=1 
C247: x6+x42 <=1 
C248: x6+x43 <=1 
C249: x6+x45 <=1 
C250: x6+x47 <=1 
C251: x6+x49-y6_49 <=1 
C252: x6+x51 <=1 
C253: x6+x52 <=1 
C254: x6+x56-y6_56 <=1 
C255: x6+x57-y6_57 <=1 
C256: x6+x61-y6_61 <=1 
C257: x6+x64-y6_64 <=1 
C258: x6+x68 <=1 
C259: x7+x9-y7_9 <=1 
C260: x7+x10-y7_10 <=1 
C261: x7+x11 <=1 
C262: x7+x12-y7_12 <=1 
C263: x7+x14 <=1 
C264: x7+x15 <=1 
C265: x7+x18 <=1 
C266: x7+x20 <=1 
C267: x7+x21-y7_21 <=1 
C268: x7+x23 <=1 
C269: x7+x24-y7_24 <=1 
C270: x7+x25 <=1 
C271: x7+x27-y7_27 <=1 
C272: x7+x28-y7_28 <=1 
C273: x7+x29-y7_29 <=1 
C274: x7+x30 <=1 
C275: x7+x31 <=1 
C276: x7+x32-y7_32 <=1 
C277: x7+x33 <=1 
C278: x7+x35-y7_35 <=1 
C279: x7+x37-y7_37 <=1 
C280: x7+x38 <=1 
C281: x7+x39-y7_39 <=1 
C282: x7+x41-y7_41 <=1 
C283: x7+x42-y7_42 <=1 
C284: x7+x44-y7_44 <=1 
C285: x7+x45-y7_45 <=1 
C286: x7+x49 <=1 
C287: x7+x50 <=1 
C288: x7+x52-y7_52 <=1 
C289: x7+x53 <=1 
C290: x7+x54 <=1 
C291: x7+x59 <=1 
C292: x7+x63-y7_63 <=1 
C293: x7+x65 <=1 
C294: x7+x67-y7_67 <=1 
C295: x7+x68 <=1 
C296: x8+x10-y8_10 <=1 
C297: x8+x11-y8_11 <=1 
C298: x8+x12 <=1 
C299: x8+x13 <=1 
C300: x8+x14 <=1 
C301: x8+x18-y8_18 <=1 
C302: x8+x19-y8_19 <=1 
C303: x8+x20-y8_20 <=1 
C304: x8+x22-y8_22 <=1 
C305: x8+x23-y8_23 <=1 
C306: x8+x24 <=1 
C307: x8+x25-y8_25 <=1 
C308: x8+x27-y8_27 <=1 
C309: x8+x34 <=1 
C310: x8+x35 <=1 
C311: x8+x37 <=1 
C312: x8+x40 <=1 
C313: x8+x41 <=1 
C314: x8+x46-y8_46 <=1 
C315: x8+x47-y8_47 <=1 
C316: x8+x49 <=1 
C317: x8+x50 <=1 
C318: x8+x51-y8_51 <=1 
C319: x8+x54 <=1 
C320: x8+x55 <=1 
C321: x8+x56-y8_56 <=1 
C322: x8+x57-y8_57 <=1 
C323: x8+x59-y8_59 <=1 
C324: x8+x62-y8_62 <=1 
C325: x8+x64 <=1 
C326: x8+x66-y8_66 <=1 
C327: x8+x68 <=1 
C328: x9+x12-y9_12 <=1 
C329: x9+x14 <=1 
C330: x9+x16 <=1 
C331: x9+x18-y9_18 <=1 
C332: x9+x19-y9_19 <=1 
C333: x9+x20-y9_20 <=1 
C334: x9+x21-y9_21 <=1 
C335: x9+x24-y9_24 <=1 
C336: x9+x25 <=1 
C337: x9+x26-y9_26 <=1 
C338: x9+x27 <=1 
C339: x9+x30-y9_30 <=1 
C340: x9+x31 <=1 
C341: x9+x32-y9_32 <=1 
C342: x9+x33-y9_33 <=1 
C343: x9+x34-y9_34 <=1 
C344: x9+x36 <=1 
C345: x9+x37-y9_37 <=1 
C346: x9+x41-y9_41 <=1 
C347: x9+x42-y9_42 <=1 
C348: x9+x45 <=1 
C349: x9+x47-y9_47 <=1 
C350: x9+x48 <=1 
C351: x9+x50-y9_50 <=1 
C352: x9+x51-y9_51 <=1 
C353: x9+x52 <=1 
C354: x9+x54-y9_54 <=1 
C355: x9+x55 <=1 
C356: x9+x56-y9_56 <=1 
C357: x9+x58 <=1 
C358: x9+x59 <=1 
C359: x9+x60 <=1 
C360: x9+x61 <=1 
C361: x9+x62-y9_62 <=1 
C362: x9+x66 <=1 
C363: x9+x67-y9_67 <=1 
C364: x9+x68-y9_68 <=1 
C365: x10+x11-y10_11 <=1 
C366: x10+x12-y10_12 <=1 
C367: x10+x15 <=1 
C368: x10+x16 <=1 
C369: x10+x19-y10_19 <=1 
C370: x10+x20-y10_20 <=1 
C371: x10+x21 <=1 
C372: x10+x22-y10_22 <=1 
C373: x10+x23 <=1 
C374: x10+x25 <=1 
C375: x10+x28 <=1 
C376: x10+x29 <=1 
C377: x10+x31-y10_31 <=1 
C378: x10+x33-y10_33 <=1 
C379: x10+x34-y10_34 <=1 
C380: x10+x38 <=1 
C381: x10+x40 <=1 
C382: x10+x41 <=1 
C383: x10+x42-y10_42 <=1 
C384: x10+x43 <=1 
C385: x10+x45-y10_45 <=1 
C386: x10+x47 <=1 
C387: x10+x48 <=1 
C388: x10+x49 <=1 
C389: x10+x50 <=1 
C390: x10+x53-y10_53 <=1 
C391: x10+x57-y10_57 <=1 
C392: x10+x58 <=1 
C393: x10+x63-y10_63 <=1 
C394: x10+x64-y10_64 <=1 
C395: x10+x65 <=1 
C396: x10+x66 <=1 
C397: x10+x68 <=1 
C398: x11+x12-y11_12 <=1 
C399: x11+x13-y11_13 <=1 
C400: x11+x14 <=1 
C401: x11+x15-y11_15 <=1 
C402: x11+x16-y11_16 <=1 
C403: x11+x17-y11_17 <=1 
C404: x11+x18-y11_18 <=1 
C405: x11+x19-y11_19 <=1 
C406: x11+x21-y11_21 <=1 
C407: x11+x22 <=1 
C408: x11+x24 <=1 
C409: x11+x25-y11_25 <=1 
C410: x11+x26-y11_26 <=1 
C411: x11+x28-y11_28 <=1 
C412: x11+x29-y11_29 <=1 
C413: x11+x33-y11_33 <=1 
C414: x11+x34 <=1 
C415: x11+x35-y11_35 <=1 
C416: x11+x36 <=1 
C417: x11+x37 <=1 
C418: x11+x38-y11_38 <=1 
C419: x11+x39 <=1 
C420: x11+x40-y11_40 <=1 
C421: x11+x42-y11_42 <=1 
C422: x11+x44-y11_44 <=1 
C423: x11+x45 <=1 
C424: x11+x46 <=1 
C425: x11+x47 <=1 
C426: x11+x49-y11_49 <=1 
C427: x11+x51 <=1 
C428: x11+x52-y11_52 <=1 
C429: x11+x53-y11_53 <=1 
C430: x11+x56 <=1 
C431: x11+x57 <=1 
C432: x11+x59 <=1 
C433: x11+x60-y11_60 <=1 
C434: x11+x61 <=1 
C435: x11+x63-y11_63 <=1 
C436: x11+x64-y11_64 <=1 
C437: x11+x65-y11_65 <=1 
C438: x11+x66-y11_66 <=1 
C439: x11+x67 <=1 
C440: x11+x68-y11_68 <=1 
C441: x12+x13-y12_13 <=1 
C442: x12+x14-y12_14 <=1 
C443: x12+x17-y12_17 <=1 
C444: x12+x18 <=1 
C445: x12+x20 <=1 
C446: x12+x22-y12_22 <=1 
C447: x12+x23 <=1 
C448: x12+x25-y12_25 <=1 
C449: x12+x26 <=1 
C450: x12+x28-y12_28 <=1 
C451: x12+x29-y12_29 <=1 
C452: x12+x31-y12_31 <=1 
C453: x12+x32 <=1 
C454: x12+x34-y12_34 <=1 
C455: x12+x36-y12_36 <=1 
C456: x12+x37-y12_37 <=1 
C457: x12+x38-y12_38 <=1 
C458: x12+x40-y12_40 <=1 
C459: x12+x41 <=1 
C460: x12+x42-y12_42 <=1 
C461: x12+x43-y12_43 <=1 
C462: x12+x44 <=1 
C463: x12+x45 <=1 
C464: x12+x47 <=1 
C465: x12+x48 <=1 
C466: x12+x49 <=1 
C467: x12+x50-y12_50 <=1 
C468: x12+x52-y12_52 <=1 
C469: x12+x53-y12_53 <=1 
C470: x12+x58 <=1 
C471: x12+x66 <=1 
C472: x12+x67-y12_67 <=1 
C473: x12+x68 <=1 
C474: x13+x14-y13_14 <=1 
C475: x13+x16-y13_16 <=1 
C476: x13+x18-y13_18 <=1 
C477: x13+x19-y13_19 <=1 
C478: x13+x20-y13_20 <=1 
C479: x13+x21 <=1 
C480: x13+x23-y13_23 <=1 
C481: x13+x25-y13_25 <=1 
C482: x13+x27-y13_27 <=1 
C483: x13+x28-y13_28 <=1 
C484: x13+x30 <=1 
C485: x13+x32 <=1 
C486: x13+x34-y13_34 <=1 
C487: x13+x35 <=1 
C488: x13+x37 <=1 
C489: x13+x39 <=1 
C490: x13+x41-y13_41 <=1 
C491: x13+x43-y13_43 <=1 
C492: x13+x44-y13_44 <=1 
C493: x13+x45 <=1 
C494: x13+x47 <=1 
C495: x13+x48 <=1 
C496: x13+x51 <=1 
C497: x13+x52 <=1 
C498: x13+x53 <=1 
C499: x13+x54-y13_54 <=1 
C500: x13+x57 <=1 
C501: x13+x59 <=1 
C502: x13+x60-y13_60 <=1 
C503: x13+x61 <=1 
C504: x13+x62 <=1 
C505: x13+x65-y13_65 <=1 
C506: x13+x66 <=1 
C507: x14+x15-y14_15 <=1 
C508: x14+x17-y14_17 <=1 
C509: x14+x21 <=1 
C510: x14+x22 <=1 
C511: x14+x23 <=1 
C512: x14+x24 <=1 
C513: x14+x26 <=1 
C514: x14+x27 <=1 
C515: x14+x28-y14_28 <=1 
C516: x14+x30 <=1 
C517: x14+x31-y14_31 <=1 
C518: x14+x32-y14_32 <=1 
C519: x14+x33 <=1 
C520: x14+x34-y14_34 <=1 
C521: x14+x35 <=1 
C522: x14+x36-y14_36 <=1 
C523: x14+x38-y14_38 <=1 
C524: x14+x41-y14_41 <=1 
C525: x14+x42 <=1 
C526: x14+x43-y14_43 <=1 
C527: x14+x44 <=1 
C528: x14+x46-y14_46 <=1 
C529: x14+x47 <=1 
C530: x14+x50-y14_50 <=1 
C531: x14+x51 <=1 
C532: x14+x53-y14_53 <=1 
C533: x14+x54-y14_54 <=1 
C534: x14+x55-y14_55 <=1 
C535: x14+x56 <=1 
C536: x14+x57 <=1 
C537: x14+x59 <=1 
C538: x14+x64-y14_64 <=1 
C539: x14+x65 <=1 
C540: x14+x66 <=1 
C541: x14+x67 <=1 
C542: x14+x68-y14_68 <=1 
C543: x15+x17-y15_17 <=1 
C544: x15+x21 <=1 
C545: x15+x22-y15_22 <=1 
C546: x15+x23-y15_23 <=1 
C547: x15+x27 <=1 
C548: x15+x28-y15_28 <=1 
C549: x15+x29-y15_29 <=1 
C550: x15+x31-y15_31 <=1 
C551: x15+x32 <=1 
C552: x15+x36-y15_36 <=1 
C553: x15+x37 <=1 
C554: x15+x38 <=1 
C555: x15+x39 <=1 
C556: x15+x42 <=1 
C557: x15+x44 <=1 
C558: x15+x46-y15_46 <=1 
C559: x15+x47-y15_47 <=1 
C560: x15+x51-y15_51 <=1 
C561: x15+x54 <=1 
C562: x15+x55-y15_55 <=1 
C563: x15+x57 <=1 
C564: x15+x59 <=1 
C565: x15+x60 <=1 
C566: x15+x61 <=1 
C567: x15+x62-y15_62 <=1 
C568: x15+x64 <=1 
C569: x16+x17 <=1 
C570: x16+x18-y16_18 <=1 
C571: x16+x19-y16_19 <=1 
C572: x16+x20-y16_20 <=1 
C573: x16+x22 <=1 
C574: x16+x23-y16_23 <=1 
C575: x16+x24-y16_24 <=1 
C576: x16+x25 <=1 
C577: x16+x27 <=1 
C578: x16+x30-y16_30 <=1 
C579: x16+x31-y16_31 <=1 
C580: x16+x33 <=1 
C581: x16+x34 <=1 
C582: x16+x41 <=1 
C583: x16+x44-y16_44 <=1 
C584: x16+x45-y16_45 <=1 
C585: x16+x49 <=1 
C586: x16+x50-y16_50 <=1 
C587: x16+x51 <=1 
C588: x16+x54 <=1 
C589: x16+x56 <=1 
C590: x16+x58 <=1 
C591: x16+x60 <=1 
C592: x16+x61 <=1 
C593: x16+x62 <=1 
C594: x16+x64-y16_64 <=1 
C595: x16+x65 <=1 
C596: x16+x68-y16_68 <=1 
C597: x17+x18 <=1 
C598: x17+x19 <=1 
C599: x17+x20-y17_20 <=1 
C600: x17+x21-y17_21 <=1 
C601: x17+x22 <=1 
C602: x17+x23 <=1 
C603: x17+x24-y17_24 <=1 
C604: x17+x25-y17_25 <=1 
C605: x17+x26-y17_26 <=1 
C606: x17+x28-y17_28 <=1 
C607: x17+x29-y17_29 <=1 
C608: x17+x31 <=1 
C609: x17+x34-y17_34 <=1 
C610: x17+x35-y17_35 <=1 
C611: x17+x36-y17_36 <=1 
C612: x17+x37 <=1 
C613: x17+x38 <=1 
C614: x17+x40-y17_40 <=1 
C615: x17+x44 <=1 
C616: x17+x45 <=1 
C617: x17+x46-y17_46 <=1 
C618: x17+x47-y17_47 <=1 
C619: x17+x48 <=1 
C620: x17+x49 <=1 
C621: x17+x52-y17_52 <=1 
C622: x17+x53-y17_53 <=1 
C623: x17+x55 <=1 
C624: x17+x56 <=1 
C625: x17+x57-y17_57 <=1 
C626: x17+x58-y17_58 <=1 
C627: x17+x59 <=1 
C628: x17+x60-y17_60 <=1 
C629: x17+x61-y17_61 <=1 
C630: x17+x62-y17_62 <=1 
C631: x17+x64 <=1 
C632: x17+x65-y17_65 <=1 
C633: x17+x67 <=1 
C634: x17+x68-y17_68 <=1 
C635: x18+x19 <=1 
C636: x18+x21 <=1 
C637: x18+x22 <=1 
C638: x18+x24-y18_24 <=1 
C639: x18+x26 <=1 
C640: x18+x27-y18_27 <=1 
C641: x18+x28 <=1 
C642: x18+x29-y18_29 <=1 
C643: x18+x30-y18_30 <=1 
C644: x18+x32-y18_32 <=1 
C645: x18+x35 <=1 
C646: x18+x36 <=1 
C647: x18+x37 <=1 
C648: x18+x38 <=1 
C649: x18+x39 <=1 
C650: x18+x40-y18_40 <=1 
C651: x18+x41 <=1 
C652: x18+x42-y18_42 <=1 
C653: x18+x43 <=1 
C654: x18+x44-y18_44 <=1 
C655: x18+x48 <=1 
C656: x18+x51 <=1 
C657: x18+x52 <=1 
C658: x18+x53-y18_53 <=1 
C659: x18+x54 <=1 
C660: x18+x55-y18_55 <=1 
C661: x18+x58-y18_58 <=1 
C662: x18+x60-y18_60 <=1 
C663: x18+x63-y18_63 <=1 
C664: x18+x65 <=1 
C665: x18+x66-y18_66 <=1 
C666: x18+x67-y18_67 <=1 
C667: x19+x21 <=1 
C668: x19+x22 <=1 
C669: x19+x24-y19_24 <=1 
C670: x19+x27 <=1 
C671: x19+x32-y19_32 <=1 
C672: x19+x33 <=1 
C673: x19+x37 <=1 
C674: x19+x40-y19_40 <=1 
C675: x19+x42-y19_42 <=1 
C676: x19+x43 <=1 
C677: x19+x44-y19_44 <=1 
C678: x19+x46-y19_46 <=1 
C679: x19+x47-y19_47 <=1 
C680: x19+x48-y19_48 <=1 
C681: x19+x49 <=1 
C682: x19+x52 <=1 
C683: x19+x55 <=1 
C684: x19+x56 <=1 
C685: x19+x58-y19_58 <=1 
C686: x19+x59-y19_59 <=1 
C687: x19+x60-y19_60 <=1 
C688: x19+x61-y19_61 <=1 
C689: x19+x62-y19_62 <=1 
C690: x19+x63 <=1 
C691: x19+x64-y19_64 <=1 
C692: x19+x65-y19_65 <=1 
C693: x19+x66 <=1 
C694: x19+x67 <=1 
C695: x19+x68 <=1 
C696: x20+x21 <=1 
C697: x20+x22 <=1 
C698: x20+x23 <=1 
C699: x20+x27 <=1 
C700: x20+x28-y20_28 <=1 
C701: x20+x29-y20_29 <=1 
C702: x20+x30-y20_30 <=1 
C703: x20+x31 <=1 
C704: x20+x32-y20_32 <=1 
C705: x20+x33 <=1 
C706: x20+x34 <=1 
C707: x20+x35-y20_35 <=1 
C708: x20+x37-y20_37 <=1 
C709: x20+x39 <=1 
C710: x20+x40-y20_40 <=1 
C711: x20+x41 <=1 
C712: x20+x45 <=1 
C713: x20+x50-y20_50 <=1 
C714: x20+x51-y20_51 <=1 
C715: x20+x53 <=1 
C716: x20+x54-y20_54 <=1 
C717: x20+x55-y20_55 <=1 
C718: x20+x56-y20_56 <=1 
C719: x20+x58 <=1 
C720: x20+x60-y20_60 <=1 
C721: x20+x61-y20_61 <=1 
C722: x20+x62-y20_62 <=1 
C723: x20+x63 <=1 
C724: x20+x64-y20_64 <=1 
C725: x20+x66 <=1 
C726: x21+x22-y21_22 <=1 
C727: x21+x30-y21_30 <=1 
C728: x21+x33 <=1 
C729: x21+x35 <=1 
C730: x21+x38-y21_38 <=1 
C731: x21+x39 <=1 
C732: x21+x40-y21_40 <=1 
C733: x21+x41-y21_41 <=1 
C734: x21+x42-y21_42 <=1 
C735: x21+x47-y21_47 <=1 
C736: x21+x48 <=1 
C737: x21+x50-y21_50 <=1 
C738: x21+x51 <=1 
C739: x21+x52 <=1 
C740: x21+x55 <=1 
C741: x21+x58 <=1 
C742: x21+x59-y21_59 <=1 
C743: x21+x60-y21_60 <=1 
C744: x21+x62 <=1 
C745: x21+x63 <=1 
C746: x21+x64 <=1 
C747: x21+x66-y21_66 <=1 
C748: x21+x68-y21_68 <=1 
C749: x22+x25 <=1 
C750: x22+x27-y22_27 <=1 
C751: x22+x29 <=1 
C752: x22+x30 <=1 
C753: x22+x31-y22_31 <=1 
C754: x22+x36-y22_36 <=1 
C755: x22+x37 <=1 
C756: x22+x38 <=1 
C757: x22+x39 <=1 
C758: x22+x43 <=1 
C759: x22+x44 <=1 
C760: x22+x47-y22_47 <=1 
C761: x22+x50 <=1 
C762: x22+x51 <=1 
C763: x22+x52 <=1 
C764: x22+x54 <=1 
C765: x22+x58 <=1 
C766: x22+x59 <=1 
C767: x22+x60 <=1 
C768: x22+x61-y22_61 <=1 
C769: x22+x62 <=1 
C770: x22+x63-y22_63 <=1 
C771: x22+x64-y22_64 <=1 
C772: x22+x67-y22_67 <=1 
C773: x22+x68-y22_68 <=1 
C774: x23+x24 <=1 
C775: x23+x26-y23_26 <=1 
C776: x23+x27 <=1 
C777: x23+x28-y23_28 <=1 
C778: x23+x29-y23_29 <=1 
C779: x23+x32 <=1 
C780: x23+x33-y23_33 <=1 
C781: x23+x34-y23_34 <=1 
C782: x23+x36-y23_36 <=1 
C783: x23+x37-y23_37 <=1 
C784: x23+x38 <=1 
C785: x23+x41 <=1 
C786: x23+x42 <=1 
C787: x23+x43 <=1 
C788: x23+x44-y23_44 <=1 
C789: x23+x45 <=1 
C790: x23+x47-y23_47 <=1 
C791: x23+x48-y23_48 <=1 
C792: x23+x49-y23_49 <=1 
C793: x23+x50 <=1 
C794: x23+x52-y23_52 <=1 
C795: x23+x53 <=1 
C796: x23+x55 <=1 
C797: x23+x56 <=1 
C798: x23+x59-y23_59 <=1 
C799: x23+x60 <=1 
C800: x23+x61-y23_61 <=1 
C801: x23+x62 <=1 
C802: x23+x63 <=1 
C803: x23+x65-y23_65 <=1 
C804: x23+x66 <=1 
C805: x23+x68 <=1 
C806: x24+x25-y24_25 <=1 
C807: x24+x27-y24_27 <=1 
C808: x24+x28 <=1 
C809: x24+x29-y24_29 <=1 
C810: x24+x30-y24_30 <=1 
C811: x24+x31-y24_31 <=1 
C812: x24+x32-y24_32 <=1 
C813: x24+x33-y24_33 <=1 
C814: x24+x37-y24_37 <=1 
C815: x24+x41 <=1 
C816: x24+x42-y24_42 <=1 
C817: x24+x44-y24_44 <=1 
C818: x24+x45 <=1 
C819: x24+x47 <=1 
C820: x24+x48 <=1 
C821: x24+x49 <=1 
C822: x24+x50 <=1 
C823: x24+x52-y24_52 <=1 
C824: x24+x54 <=1 
C825: x24+x59-y24_59 <=1 
C826: x24+x61-y24_61 <=1 
C827: x24+x62 <=1 
C828: x24+x64 <=1 
C829: x24+x65-y24_65 <=1 
C830: x24+x66-y24_66 <=1 
C831: x25+x26 <=1 
C832: x25+x27-y25_27 <=1 
C833: x25+x28-y25_28 <=1 
C834: x25+x31-y25_31 <=1 
C835: x25+x32 <=1 
C836: x25+x33 <=1 
C837: x25+x36-y25_36 <=1 
C838: x25+x37-y25_37 <=1 
C839: x25+x38 <=1 
C840: x25+x39 <=1 
C841: x25+x40 <=1 
C842: x25+x41 <=1 
C843: x25+x42 <=1 
C844: x25+x46 <=1 
C845: x25+x47 <=1 
C846: x25+x49-y25_49 <=1 
C847: x25+x52-y25_52 <=1 
C848: x25+x54-y25_54 <=1 
C849: x25+x55 <=1 
C850: x25+x57 <=1 
C851: x25+x66-y25_66 <=1 
C852: x25+x67 <=1 
C853: x25+x68-y25_68 <=1 
C854: x26+x29 <=1 
C855: x26+x32 <=1 
C856: x26+x33-y26_33 <=1 
C857: x26+x35 <=1 
C858: x26+x36-y26_36 <=1 
C859: x26+x38-y26_38 <=1 
C860: x26+x41 <=1 
C861: x26+x43-y26_43 <=1 
C862: x26+x48 <=1 
C863: x26+x49-y26_49 <=1 
C864: x26+x51 <=1 
C865: x26+x52-y26_52 <=1 
C866: x26+x53-y26_53 <=1 
C867: x26+x54-y26_54 <=1 
C868: x26+x55 <=1 
C869: x26+x59-y26_59 <=1 
C870: x26+x60-y26_60 <=1 
C871: x26+x61-y26_61 <=1 
C872: x26+x62 <=1 
C873: x26+x64-y26_64 <=1 
C874: x26+x67-y26_67 <=1 
C875: x27+x28 <=1 
C876: x27+x29 <=1 
C877: x27+x30-y27_30 <=1 
C878: x27+x31-y27_31 <=1 
C879: x27+x32 <=1 
C880: x27+x34-y27_34 <=1 
C881: x27+x35-y27_35 <=1 
C882: x27+x36-y27_36 <=1 
C883: x27+x37 <=1 
C884: x27+x38-y27_38 <=1 
C885: x27+x39-y27_39 <=1 
C886: x27+x40-y27_40 <=1 
C887: x27+x45-y27_45 <=1 
C888: x27+x47-y27_47 <=1 
C889: x27+x49-y27_49 <=1 
C890: x27+x51 <=1 
C891: x27+x52 <=1 
C892: x27+x54 <=1 
C893: x27+x55-y27_55 <=1 
C894: x27+x58 <=1 
C895: x27+x59 <=1 
C896: x27+x60-y27_60 <=1 
C897: x27+x63-y27_63 <=1 
C898: x27+x64-y27_64 <=1 
C899: x27+x67 <=1 
C900: x28+x31 <=1 
C901: x28+x32-y28_32 <=1 
C902: x28+x33-y28_33 <=1 
C903: x28+x34-y28_34 <=1 
C904: x28+x35-y28_35 <=1 
C905: x28+x36 <=1 
C906: x28+x40-y28_40 <=1 
C907: x28+x41-y28_41 <=1 
C908: x28+x43-y28_43 <=1 
C909: x28+x44 <=1 
C910: x28+x45-y28_45 <=1 
C911: x28+x47 <=1 
C912: x28+x48-y28_48 <=1 
C913: x28+x50-y28_50 <=1 
C914: x28+x51 <=1 
C915: x28+x52-y28_52 <=1 
C916: x28+x53 <=1 
C917: x28+x56 <=1 
C918: x28+x58-y28_58 <=1 
C919: x28+x59-y28_59 <=1 
C920: x28+x61-y28_61 <=1 
C921: x28+x62 <=1 
C922: x28+x64 <=1 
C923: x28+x67-y28_67 <=1 
C924: x29+x31-y29_31 <=1 
C925: x29+x32-y29_32 <=1 
C926: x29+x33-y29_33 <=1 
C927: x29+x34 <=1 
C928: x29+x36 <=1 
C929: x29+x37 <=1 
C930: x29+x38 <=1 
C931: x29+x39 <=1 
C932: x29+x40 <=1 
C933: x29+x45 <=1 
C934: x29+x46 <=1 
C935: x29+x47-y29_47 <=1 
C936: x29+x51 <=1 
C937: x29+x54 <=1 
C938: x29+x55 <=1 
C939: x29+x56 <=1 
C940: x29+x58 <=1 
C941: x29+x60-y29_60 <=1 
C942: x29+x61-y29_61 <=1 
C943: x29+x62 <=1 
C944: x29+x65-y29_65 <=1 
C945: x29+x66 <=1 
C946: x29+x68 <=1 
C947: x30+x31-y30_31 <=1 
C948: x30+x36 <=1 
C949: x30+x37-y30_37 <=1 
C950: x30+x39 <=1 
C951: x30+x41-y30_41 <=1 
C952: x30+x44-y30_44 <=1 
C953: x30+x45 <=1 
C954: x30+x46 <=1 
C955: x30+x47 <=1 
C956: x30+x48-y30_48 <=1 
C957: x30+x49-y30_49 <=1 
C958: x30+x50-y30_50 <=1 
C959: x30+x54 <=1 
C960: x30+x55 <=1 
C961: x30+x56 <=1 
C962: x30+x57-y30_57 <=1 
C963: x30+x59 <=1 
C964: x30+x62 <=1 
C965: x30+x63 <=1 
C966: x30+x64-y30_64 <=1 
C967: x30+x65-y30_65 <=1 
C968: x30+x67 <=1 
C969: x31+x32-y31_32 <=1 
C970: x31+x34 <=1 
C971: x31+x35-y31_35 <=1 
C972: x31+x36 <=1 
C973: x31+x37 <=1 
C974: x31+x38 <=1 
C975: x31+x39-y31_39 <=1 
C976: x31+x40 <=1 
C977: x31+x48 <=1 
C978: x31+x49-y31_49 <=1 
C979: x31+x51-y31_51 <=1 
C980: x31+x52 <=1 
C981: x31+x53-y31_53 <=1 
C982: x31+x54-y31_54 <=1 
C983: x31+x56-y31_56 <=1 
C984: x31+x58 <=1 
C985: x31+x62 <=1 
C986: x31+x64 <=1 
C987: x31+x66 <=1 
C988: x31+x67-y31_67 <=1 
C989: x32+x33 <=1 
C990: x32+x34 <=1 
C991: x32+x36-y32_36 <=1 
C992: x32+x37 <=1 
C993: x32+x39 <=1 
C994: x32+x40-y32_40 <=1 
C995: x32+x41 <=1 
C996: x32+x42-y32_42 <=1 
C997: x32+x44-y32_44 <=1 
C998: x32+x45-y32_45 <=1 
C999: x32+x47-y32_47 <=1 
C1000: x32+x48 <=1 
C1001: x32+x49 <=1 
C1002: x32+x52-y32_52 <=1 
C1003: x32+x53 <=1 
C1004: x32+x56 <=1 
C1005: x32+x59-y32_59 <=1 
C1006: x32+x62 <=1 
C1007: x32+x64-y32_64 <=1 
C1008: x32+x68 <=1 
C1009: x33+x35-y33_35 <=1 
C1010: x33+x37 <=1 
C1011: x33+x40 <=1 
C1012: x33+x42-y33_42 <=1 
C1013: x33+x44 <=1 
C1014: x33+x45 <=1 
C1015: x33+x46-y33_46 <=1 
C1016: x33+x47-y33_47 <=1 
C1017: x33+x48-y33_48 <=1 
C1018: x33+x50 <=1 
C1019: x33+x53 <=1 
C1020: x33+x54 <=1 
C1021: x33+x55-y33_55 <=1 
C1022: x33+x56-y33_56 <=1 
C1023: x33+x57-y33_57 <=1 
C1024: x33+x59-y33_59 <=1 
C1025: x33+x60 <=1 
C1026: x33+x61 <=1 
C1027: x33+x62-y33_62 <=1 
C1028: x33+x63-y33_63 <=1 
C1029: x33+x64 <=1 
C1030: x33+x68-y33_68 <=1 
C1031: x34+x35-y34_35 <=1 
C1032: x34+x36-y34_36 <=1 
C1033: x34+x39-y34_39 <=1 
C1034: x34+x40 <=1 
C1035: x34+x44 <=1 
C1036: x34+x45-y34_45 <=1 
C1037: x34+x46-y34_46 <=1 
C1038: x34+x48 <=1 
C1039: x34+x49 <=1 
C1040: x34+x50 <=1 
C1041: x34+x54-y34_54 <=1 
C1042: x34+x56-y34_56 <=1 
C1043: x34+x59 <=1 
C1044: x34+x60-y34_60 <=1 
C1045: x34+x61-y34_61 <=1 
C1046: x34+x62 <=1 
C1047: x34+x63-y34_63 <=1 
C1048: x34+x64 <=1 
C1049: x34+x65 <=1 
C1050: x34+x66 <=1 
C1051: x34+x68 <=1 
C1052: x35+x36-y35_36 <=1 
C1053: x35+x38 <=1 
C1054: x35+x40 <=1 
C1055: x35+x41 <=1 
C1056: x35+x43-y35_43 <=1 
C1057: x35+x44-y35_44 <=1 
C1058: x35+x45 <=1 
C1059: x35+x47 <=1 
C1060: x35+x49 <=1 
C1061: x35+x54-y35_54 <=1 
C1062: x35+x55 <=1 
C1063: x35+x56-y35_56 <=1 
C1064: x35+x58 <=1 
C1065: x35+x60 <=1 
C1066: x35+x61-y35_61 <=1 
C1067: x35+x62 <=1 
C1068: x35+x63 <=1 
C1069: x35+x64 <=1 
C1070: x35+x65-y35_65 <=1 
C1071: x35+x67-y35_67 <=1 
C1072: x36+x38-y36_38 <=1 
C1073: x36+x40 <=1 
C1074: x36+x41 <=1 
C1075: x36+x42-y36_42 <=1 
C1076: x36+x44 <=1 
C1077: x36+x46 <=1 
C1078: x36+x47-y36_47 <=1 
C1079: x36+x50-y36_50 <=1 
C1080: x36+x51 <=1 
C1081: x36+x52-y36_52 <=1 
C1082: x36+x53 <=1 
C1083: x36+x54 <=1 
C1084: x36+x55 <=1 
C1085: x36+x56 <=1 
C1086: x36+x58 <=1 
C1087: x36+x59 <=1 
C1088: x36+x60-y36_60 <=1 
C1089: x36+x62-y36_62 <=1 
C1090: x36+x63 <=1 
C1091: x36+x64 <=1 
C1092: x36+x66 <=1 
C1093: x36+x68-y36_68 <=1 
C1094: x37+x38 <=1 
C1095: x37+x39 <=1 
C1096: x37+x40-y37_40 <=1 
C1097: x37+x44-y37_44 <=1 
C1098: x37+x46 <=1 
C1099: x37+x48-y37_48 <=1 
C1100: x37+x49-y37_49 <=1 
C1101: x37+x50-y37_50 <=1 
C1102: x37+x52-y37_52 <=1 
C1103: x37+x56 <=1 
C1104: x37+x57-y37_57 <=1 
C1105: x37+x58-y37_58 <=1 
C1106: x37+x59 <=1 
C1107: x37+x60-y37_60 <=1 
C1108: x37+x61 <=1 
C1109: x37+x64 <=1 
C1110: x37+x65 <=1 
C1111: x37+x66 <=1 
C1112: x38+x40 <=1 
C1113: x38+x41-y38_41 <=1 
C1114: x38+x42-y38_42 <=1 
C1115: x38+x45-y38_45 <=1 
C1116: x38+x46-y38_46 <=1 
C1117: x38+x48-y38_48 <=1 
C1118: x38+x49 <=1 
C1119: x38+x50-y38_50 <=1 
C1120: x38+x52-y38_52 <=1 
C1121: x38+x53 <=1 
C1122: x38+x54 <=1 
C1123: x38+x55 <=1 
C1124: x38+x57-y38_57 <=1 
C1125: x38+x58-y38_58 <=1 
C1126: x38+x59-y38_59 <=1 
C1127: x38+x61-y38_61 <=1 
C1128: x38+x62 <=1 
C1129: x38+x67-y38_67 <=1 
C1130: x38+x68 <=1 
C1131: x39+x43-y39_43 <=1 
C1132: x39+x46 <=1 
C1133: x39+x48 <=1 
C1134: x39+x50 <=1 
C1135: x39+x53-y39_53 <=1 
C1136: x39+x54 <=1 
C1137: x39+x56-y39_56 <=1 
C1138: x39+x57 <=1 
C1139: x39+x58 <=1 
C1140: x39+x60 <=1 
C1141: x39+x62-y39_62 <=1 
C1142: x39+x64 <=1 
C1143: x39+x66 <=1 
C1144: x39+x67 <=1 
C1145: x39+x68-y39_68 <=1 
C1146: x40+x43-y40_43 <=1 
C1147: x40+x44 <=1 
C1148: x40+x47 <=1 
C1149: x40+x50 <=1 
C1150: x40+x51 <=1 
C1151: x40+x52-y40_52 <=1 
C1152: x40+x56 <=1 
C1153: x40+x57 <=1 
C1154: x40+x58 <=1 
C1155: x40+x60-y40_60 <=1 
C1156: x40+x62 <=1 
C1157: x40+x63 <=1 
C1158: x40+x64-y40_64 <=1 
C1159: x40+x66-y40_66 <=1 
C1160: x40+x67 <=1 
C1161: x40+x68-y40_68 <=1 
C1162: x41+x43-y41_43 <=1 
C1163: x41+x45-y41_45 <=1 
C1164: x41+x46-y41_46 <=1 
C1165: x41+x48 <=1 
C1166: x41+x49 <=1 
C1167: x41+x51-y41_51 <=1 
C1168: x41+x53 <=1 
C1169: x41+x54-y41_54 <=1 
C1170: x41+x55-y41_55 <=1 
C1171: x41+x58-y41_58 <=1 
C1172: x41+x59-y41_59 <=1 
C1173: x41+x60 <=1 
C1174: x41+x61 <=1 
C1175: x41+x63 <=1 
C1176: x41+x65 <=1 
C1177: x41+x67 <=1 
C1178: x41+x68 <=1 
C1179: x42+x43 <=1 
C1180: x42+x44-y42_44 <=1 
C1181: x42+x46 <=1 
C1182: x42+x47 <=1 
C1183: x42+x49-y42_49 <=1 
C1184: x42+x51-y42_51 <=1 
C1185: x42+x52-y42_52 <=1 
C1186: x42+x53-y42_53 <=1 
C1187: x42+x55-y42_55 <=1 
C1188: x42+x56 <=1 
C1189: x42+x58 <=1 
C1190: x42+x60-y42_60 <=1 
C1191: x42+x61 <=1 
C1192: x42+x62-y42_62 <=1 
C1193: x42+x65 <=1 
C1194: x42+x66-y42_66 <=1 
C1195: x42+x67-y42_67 <=1 
C1196: x42+x68 <=1 
C1197: x43+x44 <=1 
C1198: x43+x47 <=1 
C1199: x43+x50 <=1 
C1200: x43+x52 <=1 
C1201: x43+x54-y43_54 <=1 
C1202: x43+x55-y43_55 <=1 
C1203: x43+x57-y43_57 <=1 
C1204: x43+x60-y43_60 <=1 
C1205: x43+x61-y43_61 <=1 
C1206: x43+x63 <=1 
C1207: x43+x65 <=1 
C1208: x43+x66-y43_66 <=1 
C1209: x43+x68-y43_68 <=1 
C1210: x44+x48 <=1 
C1211: x44+x49 <=1 
C1212: x44+x51-y44_51 <=1 
C1213: x44+x54 <=1 
C1214: x44+x55-y44_55 <=1 
C1215: x44+x56 <=1 
C1216: x44+x58-y44_58 <=1 
C1217: x44+x59 <=1 
C1218: x44+x60 <=1 
C1219: x44+x61-y44_61 <=1 
C1220: x44+x62-y44_62 <=1 
C1221: x44+x63-y44_63 <=1 
C1222: x44+x64 <=1 
C1223: x44+x66 <=1 
C1224: x44+x67-y44_67 <=1 
C1225: x45+x48 <=1 
C1226: x45+x49-y45_49 <=1 
C1227: x45+x51 <=1 
C1228: x45+x53 <=1 
C1229: x45+x54-y45_54 <=1 
C1230: x45+x55 <=1 
C1231: x45+x57 <=1 
C1232: x45+x58-y45_58 <=1 
C1233: x45+x61-y45_61 <=1 
C1234: x45+x62-y45_62 <=1 
C1235: x45+x63 <=1 
C1236: x45+x65 <=1 
C1237: x45+x66 <=1 
C1238: x45+x67 <=1 
C1239: x45+x68-y45_68 <=1 
C1240: x46+x47 <=1 
C1241: x46+x48 <=1 
C1242: x46+x50 <=1 
C1243: x46+x51 <=1 
C1244: x46+x52-y46_52 <=1 
C1245: x46+x53-y46_53 <=1 
C1246: x46+x54-y46_54 <=1 
C1247: x46+x55 <=1 
C1248: x46+x57-y46_57 <=1 
C1249: x46+x60 <=1 
C1250: x46+x61-y46_61 <=1 
C1251: x46+x64-y46_64 <=1 
C1252: x46+x68 <=1 
C1253: x47+x49-y47_49 <=1 
C1254: x47+x50 <=1 
C1255: x47+x52 <=1 
C1256: x47+x54 <=1 
C1257: x47+x55 <=1 
C1258: x47+x56 <=1 
C1259: x47+x59-y47_59 <=1 
C1260: x47+x61-y47_61 <=1 
C1261: x47+x62-y47_62 <=1 
C1262: x47+x64-y47_64 <=1 
C1263: x47+x67 <=1 
C1264: x47+x68 <=1 
C1265: x48+x50-y48_50 <=1 
C1266: x48+x53-y48_53 <=1 
C1267: x48+x54 <=1 
C1268: x48+x55 <=1 
C1269: x48+x57-y48_57 <=1 
C1270: x48+x58 <=1 
C1271: x48+x59-y48_59 <=1 
C1272: x48+x61 <=1 
C1273: x48+x63 <=1 
C1274: x48+x64-y48_64 <=1 
C1275: x48+x67 <=1 
C1276: x49+x50 <=1 
C1277: x49+x52-y49_52 <=1 
C1278: x49+x53 <=1 
C1279: x49+x54-y49_54 <=1 
C1280: x49+x57-y49_57 <=1 
C1281: x49+x58 <=1 
C1282: x49+x60-y49_60 <=1 
C1283: x49+x62-y49_62 <=1 
C1284: x49+x67 <=1 
C1285: x50+x51 <=1 
C1286: x50+x54-y50_54 <=1 
C1287: x50+x56-y50_56 <=1 
C1288: x50+x60-y50_60 <=1 
C1289: x50+x61 <=1 
C1290: x50+x64 <=1 
C1291: x50+x67 <=1 
C1292: x51+x54 <=1 
C1293: x51+x55 <=1 
C1294: x51+x58 <=1 
C1295: x51+x60-y51_60 <=1 
C1296: x51+x61-y51_61 <=1 
C1297: x51+x64-y51_64 <=1 
C1298: x51+x66-y51_66 <=1 
C1299: x52+x53-y52_53 <=1 
C1300: x52+x54 <=1 
C1301: x52+x56-y52_56 <=1 
C1302: x52+x60 <=1 
C1303: x52+x62 <=1 
C1304: x52+x63-y52_63 <=1 
C1305: x52+x64 <=1 
C1306: x52+x66-y52_66 <=1 
C1307: x52+x68 <=1 
C1308: x53+x55-y53_55 <=1 
C1309: x53+x57 <=1 
C1310: x53+x60 <=1 
C1311: x53+x61 <=1 
C1312: x53+x64 <=1 
C1313: x53+x66-y53_66 <=1 
C1314: x53+x67-y53_67 <=1 
C1315: x54+x56 <=1 
C1316: x54+x58-y54_58 <=1 
C1317: x54+x62-y54_62 <=1 
C1318: x54+x63-y54_63 <=1 
C1319: x54+x65 <=1 
C1320: x54+x67-y54_67 <=1 
C1321: x55+x57-y55_57 <=1 
C1322: x55+x58-y55_58 <=1 
C1323: x55+x59 <=1 
C1324: x55+x63-y55_63 <=1 
C1325: x55+x64 <=1 
C1326: x55+x65 <=1 
C1327: x55+x67-y55_67 <=1 
C1328: x56+x57 <=1 
C1329: x56+x59-y56_59 <=1 
C1330: x56+x60-y56_60 <=1 
C1331: x56+x61-y56_61 <=1 
C1332: x56+x63-y56_63 <=1 
C1333: x56+x64-y56_64 <=1 
C1334: x56+x65-y56_65 <=1 
C1335: x56+x66-y56_66 <=1 
C1336: x56+x67 <=1 
C1337: x57+x59 <=1 
C1338: x57+x60 <=1 
C1339: x57+x61 <=1 
C1340: x57+x64 <=1 
C1341: x57+x65 <=1 
C1342: x57+x66-y57_66 <=1 
C1343: x57+x68 <=1 
C1344: x58+x59-y58_59 <=1 
C1345: x58+x60-y58_60 <=1 
C1346: x58+x61 <=1 
C1347: x58+x62-y58_62 <=1 
C1348: x58+x63 <=1 
C1349: x58+x64-y58_64 <=1 
C1350: x58+x65 <=1 
C1351: x58+x66-y58_66 <=1 
C1352: x58+x68-y58_68 <=1 
C1353: x59+x61 <=1 
C1354: x59+x62 <=1 
C1355: x59+x63 <=1 
C1356: x59+x66-y59_66 <=1 
C1357: x59+x68-y59_68 <=1 
C1358: x60+x61-y60_61 <=1 
C1359: x60+x62-y60_62 <=1 
C1360: x60+x63-y60_63 <=1 
C1361: x60+x65-y60_65 <=1 
C1362: x60+x66 <=1 
C1363: x60+x67 <=1 
C1364: x60+x68 <=1 
C1365: x61+x62-y61_62 <=1 
C1366: x61+x63-y61_63 <=1 
C1367: x61+x66 <=1 
C1368: x61+x67 <=1 
C1369: x61+x68 <=1 
C1370: x62+x64 <=1 
C1371: x62+x67-y62_67 <=1 
C1372: x63+x66 <=1 
C1373: x63+x68 <=1 
C1374: x64+x66-y64_66 <=1 
C1375: x64+x67 <=1 
C1376: x64+x68-y64_68 <=1 
C1377: x65+x66 <=1 
C1378: x65+x68-y65_68 <=1 
C1379: x66+x67-y66_67 <=1 
C1380: x66+x68-y66_68 <=1 
C1381: x67+x68-y67_68 <=1 

binary
x0
x1
x2
x3
x4
x5
x6
x7
x8
x9
x10
x11
x12
x13
x14
x15
x16
x17
x18
x19
x20
x21
x22
x23
x24
x25
x26
x27
x28
x29
x30
x31
x32
x33
x34
x35
x36
x37
x38
x39
x40
x41
x42
x43
x44
x45
x46
x47
x48
x49
x50
x51
x52
x53
x54
x55
x56
x57
x58
x59
x60
x61
x62
x63
x64
x65
x66
x67
x68
