problem_generation/data/GISP/train/er_n=69_m=1381_p=0.60_SET2_setparam=100.00_alpha=0.50_841.sol
objective value:                                 1178
x0                                                  1 	(obj:100)
x4                                                  1 	(obj:100)
x8                                                  1 	(obj:100)
x16                                                 1 	(obj:100)
x28                                                 1 	(obj:100)
x30                                                 1 	(obj:100)
x32                                                 1 	(obj:100)
x38                                                 1 	(obj:100)
x42                                                 1 	(obj:100)
x52                                                 1 	(obj:100)
x57                                                 1 	(obj:100)
x66                                                 1 	(obj:100)
y28_52                                              1 	(obj:-1)
y42_66                                              1 	(obj:-1)
y4_57                                               1 	(obj:-1)
y42_52                                              1 	(obj:-1)
y4_38                                               1 	(obj:-1)
y16_30                                              1 	(obj:-1)
y0_4                                                1 	(obj:-1)
y0_16                                               1 	(obj:-1)
y28_32                                              1 	(obj:-1)
y32_52                                              1 	(obj:-1)
y32_42                                              1 	(obj:-1)
y57_66                                              1 	(obj:-1)
y8_57                                               1 	(obj:-1)
y30_57                                              1 	(obj:-1)
y8_66                                               1 	(obj:-1)
y4_32                                               1 	(obj:-1)
y38_57                                              1 	(obj:-1)
y0_66                                               1 	(obj:-1)
y38_52                                              1 	(obj:-1)
y4_8                                                1 	(obj:-1)
y52_66                                              1 	(obj:-1)
y38_42                                              1 	(obj:-1)
